COLUMNS

passenger_count
pickup_ID
dropoff_ID
request_time_sec
pickup_district
dropoff_district
LDuals
IDuals
vehicle_ID
pick_position
drop_position

REQUESTS_INFO
3      648       852       31022     189       291       138       138       25        1         2         
1      258       695       31039     87        189       147       147       68        1         2         
3      1022      526       30985     291       52        258       258       79        1         3         
1      1022      896       30930     291       291       291       291       102       1         2         
1      908       606       30971     290       189       280       280       120       1         2         
1      789       981       31037     290       291       154       154       124       1         2         
1      766       481       31024     290       189       156       156       142       1         2         
3      905       504       30993     290       52        254       254       160       1         2         
1      433       325       31042     52        299       103       103       164       1         2         
1      43        892       31048     9         291       121       121       189       1         2         
1      896       556       31026     291       199       212       212       194       1         2         
3      644       697       31045     131       189       139       139       236       1         2         
1      711       526       31042     131       52        128       128       237       1         3         
1      1002      1245      31043     291       192       220       220       248       1         4         
2      971       748       31030     290       290       221       221       258       1         2         
1      356       572       31038     119       131       161       161       271       1         3         
1      298       556       31046     277       199       140       140       299       1         3         
1      1089      1224      30993     291       192       274       274       313       1         3         
1      717       550       31022     189       189       137       137       326       1         2         
1      314       621       31030     119       280       176       176       333       1         3         
1      1024      937       31030     291       291       218       218       406       1         2         
1      959       1281      30964     291       192       282       282       430       1         3         
1      1141      1233      31028     84        129       235       235       436       1         2         
3      924       812       30985     290       290       247       247       466       1         3         
3      1171      1088      31034     192       291       221       221       499       1         2         
2      904       910       31038     290       290       180       180       520       1         2         
1      813       1148      31040     290       291       125       125       527       1         4         
1      937       668       31023     291       280       140       140       531       1         3         
2      644       697       31045     131       189       139       139       536       1         3         
3      511       44        31042     199       98        107       107       538       1         3         
1      274       556       31026     87        199       132       132       544       1         2         
3      971       748       31030     290       290       221       221       561       1         3         
1      926       1220      31029     290       84        178       178       607       1         3         
1      925       794       31039     290       290       195       195       633       1         2         
3      837       1100      30950     290       84        261       261       634       1         2         
1      907       623       31043     290       280       134       134       640       1         3         
1      839       551       31015     290       189       185       185       641       1         3         
1      1151      1127      30994     291       291       276       276       647       1         2         
3      992       925       31013     290       290       254       254       687       1         2         
3      1065      858       31004     291       290       270       270       702       1         2         
1      1106      923       31015     291       290       269       269       706       1         2         
2      1065      858       31004     291       290       264       264       713       1         2         
1      914       881       31048     291       290       131       131       718       1         3         
1      961       1218      31030     291       84        237       237       731       1         2         
1      824       556       31022     291       199       152       152       760       1         2         
1      1044      803       30903     291       291       377       377       761       1         2         
2      1225      1243      31018     192       192       200       200       765       1         2         
1      1078      736       31027     84        131       226       226       768       1         2         
1      841       1079      31050     290       84        0         0         0         0         0         
1      731       572       31050     131       131       0         0         0         0         0         
1      940       1286      31050     291       129       0         0         0         0         0         
3      1055      1034      31051     84        84        0         0         0         0         0         
3      1055      1034      31051     84        84        0         0         0         0         0         
1      645       31        31051     280       9         0         0         0         0         0         
1      549       289       31052     52        127       0         0         0         0         0         
1      840       909       31053     290       290       0         0         0         0         0         
4      679       745       31053     290       290       0         0         0         0         0         
1      434       557       31054     52        189       0         0         0         0         0         
1      351       530       31054     52        189       0         0         0         0         0         
1      629       627       31054     189       189       0         0         0         0         0         
1      948       805       31055     290       291       0         0         0         0         0         
1      710       574       31055     131       189       0         0         0         0         0         
2      940       858       31056     291       290       0         0         0         0         0         
3      1273      1305      31056     84        129       0         0         0         0         0         
3      1273      1305      31056     84        129       0         0         0         0         0         
2      863       411       31056     290       52        0         0         0         0         0         
1      550       816       31056     189       290       0         0         0         0         0         
3      940       858       31056     291       290       0         0         0         0         0         
2      466       556       31057     199       199       0         0         0         0         0         
2      948       720       31058     290       290       0         0         0         0         0         
3      948       720       31058     290       290       0         0         0         0         0         
1      925       813       31059     290       290       0         0         0         0         0         
1      389       653       31060     299       189       0         0         0         0         0         
3      897       134       31060     291       9         0         0         0         0         0         
3      897       134       31060     291       9         0         0         0         0         0         
2      926       696       31060     290       189       0         0         0         0         0         
1      1107      850       31060     291       291       0         0         0         0         0         
2      351       398       31061     52        168       0         0         0         0         0         
1      925       984       31061     290       291       0         0         0         0         0         
1      436       455       31061     100       52        0         0         0         0         0         
1      333       512       31062     119       199       0         0         0         0         0         
1      912       782       31062     291       291       0         0         0         0         0         
1      20        862       31062     98        290       0         0         0         0         0         
1      697       663       31062     189       131       0         0         0         0         0         
1      700       883       31063     290       290       0         0         0         0         0         
1      1132      1022      31064     291       291       0         0         0         0         0         
1      912       923       31064     291       290       0         0         0         0         0         
1      306       647       31064     299       280       0         0         0         0         0         
1      234       527       31064     87        52        0         0         0         0         0         
2      711       526       31064     131       52        0         0         0         0         0         
3      711       526       31064     131       52        0         0         0         0         0         
1      714       458       31065     131       52        0         0         0         0         0         
3      511       556       31065     199       199       0         0         0         0         0         
2      511       556       31065     199       199       0         0         0         0         0         
1      1087      903       31066     291       290       0         0         0         0         0         
1      480       480       31066     52        52        0         0         0         0         0         
1      1022      1161      31066     291       84        0         0         0         0         0         
1      731       527       31067     131       52        0         0         0         0         0         
1      374       531       31067     119       189       0         0         0         0         0         
1      314       811       31067     119       290       0         0         0         0         0         
1      216       693       31067     178       280       0         0         0         0         0         
2      436       194       31068     100       207       0         0         0         0         0         
2      694       1128      31068     189       291       0         0         0         0         0         
1      601       21        31069     189       98        0         0         0         0         0         
1      958       1168      31069     291       291       0         0         0         0         0         
1      859       1208      31069     290       192       0         0         0         0         0         
1      133       144       31069     9         54        0         0         0         0         0         
1      457       376       31069     52        168       0         0         0         0         0         
1      875       990       31069     291       290       0         0         0         0         0         
1      738       557       31070     189       189       0         0         0         0         0         
3      696       858       31070     189       290       0         0         0         0         0         
2      696       858       31070     189       290       0         0         0         0         0         
1      1021      350       31071     291       127       0         0         0         0         0         
3      409       331       31071     52        127       0         0         0         0         0         
3      409       331       31071     52        127       0         0         0         0         0         
1      466       771       31072     199       290       0         0         0         0         0         
1      1109      874       31072     291       291       0         0         0         0         0         
1      325       9         31072     299       98        0         0         0         0         0         
2      1157      1232      31072     129       129       0         0         0         0         0         
1      304       673       31073     299       189       0         0         0         0         0         
1      268       556       31074     299       199       0         0         0         0         0         
1      1044      1244      31074     291       192       0         0         0         0         0         
1      865       814       31074     290       290       0         0         0         0         0         
1      894       904       31074     291       290       0         0         0         0         0         
2      839       535       31075     290       189       0         0         0         0         0         
1      276       504       31075     87        52        0         0         0         0         0         
2      929       969       31075     290       290       0         0         0         0         0         
1      760       557       31075     291       189       0         0         0         0         0         
1      395       199       31075     100       178       0         0         0         0         0         
1      888       723       31076     290       290       0         0         0         0         0         
1      701       527       31077     290       52        0         0         0         0         0         
2      863       669       31077     290       280       0         0         0         0         0         
1      583       415       31078     189       100       0         0         0         0         0         
1      772       373       31078     290       119       0         0         0         0         0         
3      873       959       31078     291       291       0         0         0         0         0         
3      727       744       31078     290       290       0         0         0         0         0         
3      727       744       31078     290       290       0         0         0         0         0         
1      214       905       31079     207       290       0         0         0         0         0         
